MARKOV
225
 2 2 2 2 2 2 2 2 2 2 2 2 2 2 2 2 2 2 2 2 2 2 2 2 2 2 2 2 2 2 2 2 2 2 2 2 2 2 2 2 2 2 2 2 2 2 2 2 2 2 2 2 2 2 2 2 2 2 2 2 2 2 2 2 2 2 2 2 2 2 2 2 2 2 2 2 2 2 2 2 2 2 2 2 2 2 2 2 2 2 2 2 2 2 2 2 2 2 2 2 2 2 2 2 2 2 2 2 2 2 2 2 2 2 2 2 2 2 2 2 2 2 2 2 2 2 2 2 2 2 2 2 2 2 2 2 2 2 2 2 2 2 2 2 2 2 2 2 2 2 2 2 2 2 2 2 2 2 2 2 2 2 2 2 2 2 2 2 2 2 2 2 2 2 2 2 2 2 2 2 2 2 2 2 2 2 2 2 2 2 2 2 2 2 2 2 2 2 2 2 2 2 2 2 2 2 2 2 2 2 2 2 2 2 2 2 2 2 2 2 2 2 2 2 2
838
1	0 
1	1 
1	2 
1	3 
1	4 
1	5 
1	6 
1	7 
1	8 
1	9 
1	10 
1	11 
1	12 
1	13 
1	14 
1	15 
1	16 
1	17 
1	18 
1	19 
1	20 
1	21 
1	22 
1	23 
1	24 
1	25 
1	26 
1	27 
1	28 
1	29 
1	30 
1	31 
1	32 
1	33 
1	34 
1	35 
1	36 
1	37 
1	38 
1	39 
1	40 
1	41 
1	42 
1	43 
1	44 
1	45 
1	46 
1	47 
1	48 
1	49 
1	50 
1	51 
1	52 
1	53 
1	54 
1	55 
1	56 
1	57 
1	58 
1	59 
1	60 
1	61 
1	62 
1	63 
1	64 
1	65 
1	66 
1	67 
1	68 
1	69 
1	70 
1	71 
1	72 
1	73 
1	74 
1	75 
1	76 
1	77 
1	78 
1	79 
1	80 
1	81 
1	82 
1	83 
1	84 
1	85 
1	86 
1	87 
1	88 
1	89 
1	90 
1	91 
1	92 
1	93 
1	94 
1	95 
1	96 
1	97 
1	98 
1	99 
1	100 
1	101 
1	102 
1	103 
1	104 
1	105 
1	106 
1	107 
1	108 
1	109 
1	110 
1	111 
1	112 
1	113 
1	114 
1	115 
1	116 
1	117 
1	118 
1	119 
1	120 
1	121 
1	122 
1	123 
1	124 
1	125 
1	126 
1	127 
1	128 
1	129 
1	130 
1	131 
1	132 
1	133 
1	134 
1	135 
1	136 
1	137 
1	138 
1	139 
1	140 
1	141 
1	142 
1	143 
1	144 
1	145 
1	146 
1	147 
1	148 
1	149 
1	150 
1	151 
1	152 
1	153 
1	154 
1	155 
1	156 
1	157 
1	158 
1	159 
1	160 
1	161 
1	162 
1	163 
1	164 
1	165 
1	166 
1	167 
1	168 
1	169 
1	170 
1	171 
1	172 
1	173 
1	174 
1	175 
1	176 
1	177 
1	178 
1	179 
1	180 
1	181 
1	182 
1	183 
1	184 
1	185 
1	186 
1	187 
1	188 
1	189 
1	190 
1	191 
1	192 
1	193 
1	194 
1	195 
1	196 
1	197 
1	198 
1	199 
1	200 
1	201 
1	202 
1	203 
1	204 
1	205 
1	206 
1	207 
1	208 
1	209 
1	210 
1	211 
1	212 
1	213 
1	214 
1	215 
1	216 
1	217 
1	218 
1	219 
1	220 
1	221 
1	222 
1	223 
1	224 
2	1 2 
2	1 4 
2	1 7 
2	1 8 
2	1 158 
2	2 7 
2	2 158 
2	2 159 
2	2 161 
2	2 203 
2	2 206 
2	2 208 
2	3 4 
2	3 5 
2	3 6 
2	3 44 
2	3 135 
2	3 137 
2	3 157 
2	4 5 
2	4 8 
2	4 157 
2	5 6 
2	5 8 
2	5 10 
2	5 167 
2	6 42 
2	6 44 
2	6 167 
2	7 8 
2	7 12 
2	7 161 
2	8 10 
2	8 12 
2	9 10 
2	9 11 
2	9 12 
2	9 56 
2	9 57 
2	10 11 
2	10 12 
2	10 167 
2	11 57 
2	11 163 
2	11 166 
2	11 167 
2	12 56 
2	12 161 
2	12 162 
2	13 15 
2	13 94 
2	13 95 
2	13 96 
2	14 15 
2	14 50 
2	14 51 
2	15 51 
2	15 95 
2	16 17 
2	16 18 
2	16 22 
2	16 144 
2	16 196 
2	17 18 
2	17 19 
2	17 70 
2	17 71 
2	17 144 
2	17 154 
2	18 19 
2	18 20 
2	18 21 
2	18 196 
2	19 21 
2	19 53 
2	19 54 
2	19 55 
2	19 70 
2	20 21 
2	20 194 
2	20 196 
2	21 55 
2	22 23 
2	22 24 
2	22 25 
2	22 144 
2	22 148 
2	22 196 
2	23 24 
2	23 146 
2	23 148 
2	23 169 
2	23 170 
2	24 25 
2	24 34 
2	24 170 
2	25 32 
2	25 34 
2	25 196 
2	26 27 
2	26 28 
2	26 105 
2	26 150 
2	26 172 
2	26 173 
2	26 179 
2	27 28 
2	27 30 
2	27 93 
2	27 150 
2	27 199 
2	28 29 
2	28 150 
2	28 172 
2	28 199 
2	28 202 
2	29 172 
2	29 193 
2	29 201 
2	29 202 
2	30 57 
2	30 89 
2	30 93 
2	30 150 
2	30 152 
2	31 32 
2	31 33 
2	31 35 
2	31 195 
2	32 34 
2	32 35 
2	32 195 
2	32 196 
2	33 35 
2	33 72 
2	33 76 
2	34 35 
2	34 170 
2	34 186 
2	34 187 
2	35 72 
2	35 187 
2	36 37 
2	36 88 
2	36 106 
2	36 107 
2	36 133 
2	36 218 
2	37 68 
2	37 88 
2	37 155 
2	37 215 
2	37 216 
2	37 218 
2	38 39 
2	38 58 
2	38 59 
2	38 66 
2	38 160 
2	39 58 
2	39 160 
2	39 161 
2	39 162 
2	40 41 
2	40 42 
2	40 43 
2	40 47 
2	41 42 
2	41 44 
2	41 45 
2	41 47 
2	42 43 
2	42 44 
2	42 166 
2	42 167 
2	43 165 
2	44 45 
2	44 137 
2	45 46 
2	45 47 
2	45 137 
2	45 138 
2	46 47 
2	46 138 
2	48 49 
2	48 75 
2	48 143 
2	49 75 
2	49 76 
2	50 51 
2	50 198 
2	51 91 
2	51 95 
2	51 197 
2	51 198 
2	52 54 
2	52 69 
2	52 70 
2	52 100 
2	52 177 
2	52 212 
2	52 217 
2	53 54 
2	53 55 
2	53 175 
2	53 177 
2	54 70 
2	54 177 
2	55 175 
2	56 57 
2	56 58 
2	56 104 
2	56 151 
2	56 152 
2	56 162 
2	57 89 
2	57 152 
2	57 163 
2	58 59 
2	58 101 
2	58 103 
2	58 104 
2	58 162 
2	59 66 
2	59 67 
2	59 101 
2	59 102 
2	59 108 
2	59 223 
2	60 62 
2	60 188 
2	60 191 
2	61 62 
2	61 63 
2	61 110 
2	61 192 
2	62 191 
2	62 192 
2	63 64 
2	63 110 
2	63 112 
2	64 112 
2	64 115 
2	64 117 
2	64 128 
2	64 129 
2	65 67 
2	65 106 
2	65 107 
2	65 108 
2	66 67 
2	66 106 
2	66 160 
2	66 204 
2	66 207 
2	67 106 
2	68 69 
2	68 153 
2	68 155 
2	68 216 
2	68 217 
2	69 70 
2	69 71 
2	69 153 
2	69 154 
2	69 217 
2	70 71 
2	71 154 
2	72 73 
2	72 75 
2	72 76 
2	72 77 
2	72 187 
2	73 74 
2	73 75 
2	73 77 
2	73 141 
2	73 142 
2	73 143 
2	74 77 
2	74 127 
2	74 141 
2	74 185 
2	74 186 
2	75 76 
2	75 143 
2	77 186 
2	77 187 
2	78 79 
2	78 80 
2	78 81 
2	78 87 
2	78 131 
2	78 134 
2	79 80 
2	79 97 
2	79 131 
2	80 81 
2	81 84 
2	81 87 
2	82 84 
2	82 85 
2	82 86 
2	82 87 
2	82 208 
2	82 210 
2	83 85 
2	83 86 
2	83 156 
2	83 221 
2	84 86 
2	84 87 
2	85 86 
2	85 156 
2	85 159 
2	85 208 
2	87 134 
2	87 209 
2	87 210 
2	88 107 
2	88 109 
2	88 155 
2	89 92 
2	89 93 
2	89 94 
2	89 163 
2	90 91 
2	90 92 
2	90 93 
2	90 96 
2	90 199 
2	91 95 
2	91 197 
2	91 199 
2	92 93 
2	92 94 
2	92 96 
2	93 199 
2	94 96 
2	94 163 
2	94 164 
2	95 96 
2	97 98 
2	97 99 
2	97 131 
2	98 99 
2	98 100 
2	98 213 
2	99 100 
2	99 131 
2	99 219 
2	100 212 
2	100 213 
2	100 217 
2	100 219 
2	101 102 
2	101 103 
2	101 179 
2	101 180 
2	102 180 
2	102 223 
2	103 104 
2	103 105 
2	103 179 
2	104 105 
2	104 151 
2	105 150 
2	105 151 
2	105 179 
2	106 107 
2	106 108 
2	106 133 
2	106 204 
2	106 205 
2	107 108 
2	107 109 
2	107 146 
2	107 149 
2	108 149 
2	108 223 
2	108 224 
2	109 146 
2	109 148 
2	109 153 
2	109 155 
2	110 111 
2	110 112 
2	110 113 
2	110 192 
2	111 112 
2	111 113 
2	111 114 
2	111 182 
2	111 184 
2	112 115 
2	113 181 
2	113 184 
2	113 190 
2	113 192 
2	114 115 
2	114 116 
2	114 182 
2	114 183 
2	115 116 
2	115 117 
2	116 117 
2	116 120 
2	116 121 
2	116 183 
2	117 120 
2	117 128 
2	118 120 
2	118 121 
2	118 122 
2	118 147 
2	118 171 
2	118 178 
2	119 122 
2	119 125 
2	119 127 
2	119 168 
2	119 185 
2	120 121 
2	120 122 
2	120 126 
2	120 128 
2	121 178 
2	121 183 
2	122 125 
2	122 126 
2	122 168 
2	122 171 
2	123 124 
2	123 125 
2	123 127 
2	123 140 
2	124 125 
2	124 126 
2	124 130 
2	125 126 
2	125 127 
2	126 128 
2	126 130 
2	127 140 
2	127 141 
2	127 185 
2	128 129 
2	128 130 
2	129 130 
2	131 132 
2	131 134 
2	131 215 
2	131 219 
2	132 133 
2	132 134 
2	132 215 
2	132 218 
2	133 134 
2	133 205 
2	133 209 
2	133 218 
2	134 209 
2	135 136 
2	135 137 
2	135 139 
2	135 157 
2	135 222 
2	136 139 
2	136 220 
2	136 222 
2	137 138 
2	137 139 
2	138 139 
2	140 141 
2	140 142 
2	141 142 
2	142 143 
2	144 148 
2	144 153 
2	144 154 
2	145 147 
2	145 149 
2	145 178 
2	145 180 
2	145 183 
2	145 223 
2	145 224 
2	146 147 
2	146 148 
2	146 149 
2	146 169 
2	147 149 
2	147 169 
2	147 171 
2	147 178 
2	148 153 
2	149 224 
2	150 151 
2	150 152 
2	151 152 
2	153 154 
2	153 155 
2	156 157 
2	156 158 
2	156 159 
2	156 221 
2	156 222 
2	157 158 
2	157 222 
2	158 159 
2	159 208 
2	160 161 
2	160 206 
2	160 207 
2	161 162 
2	161 206 
2	163 164 
2	163 166 
2	164 165 
2	164 166 
2	165 166 
2	166 167 
2	168 169 
2	168 170 
2	168 171 
2	168 185 
2	169 170 
2	169 171 
2	170 185 
2	170 186 
2	172 173 
2	172 189 
2	172 193 
2	173 179 
2	173 181 
2	173 189 
2	173 190 
2	174 175 
2	174 176 
2	175 176 
2	175 177 
2	176 177 
2	176 211 
2	176 214 
2	177 212 
2	177 214 
2	178 183 
2	179 180 
2	179 181 
2	179 184 
2	180 182 
2	180 183 
2	180 184 
2	180 223 
2	181 184 
2	181 190 
2	182 183 
2	182 184 
2	185 186 
2	186 187 
2	188 191 
2	188 193 
2	188 200 
2	188 201 
2	189 190 
2	189 191 
2	189 193 
2	190 191 
2	190 192 
2	191 192 
2	191 193 
2	193 201 
2	194 195 
2	194 196 
2	195 196 
2	197 198 
2	197 199 
2	197 202 
2	198 200 
2	198 201 
2	198 202 
2	199 202 
2	200 201 
2	201 202 
2	203 204 
2	203 206 
2	203 207 
2	203 208 
2	203 210 
2	204 205 
2	204 207 
2	204 209 
2	204 210 
2	205 209 
2	206 207 
2	208 210 
2	209 210 
2	211 212 
2	211 213 
2	211 214 
2	212 213 
2	212 214 
2	215 216 
2	215 218 
2	215 219 
2	216 217 
2	216 219 
2	217 219 
2	220 221 
2	220 222 
2	221 222 
2	223 224 
0	

2
 0.252912 1
2
 1 0.904072
2
 0.767336 1
2
 1 0.208
2
 1 0.409462
2
 1 0.22643
2
 1 0.571093
2
 1 0.918077
2
 1 0.459757
2
 0.0171279 1
2
 1 0.275902
2
 0.405182 1
2
 0.0119746 1
2
 0.349832 1
2
 0.549251 1
2
 1 0.956815
2
 0.0845308 1
2
 0.0121498 1
2
 0.578477 1
2
 0.146984 1
2
 0.899714 1
2
 1 0.336911
2
 0.575118 1
2
 0.988408 1
2
 1 0.617904
2
 0.993249 1
2
 1 0.63147
2
 0.465621 1
2
 1 0.193548
2
 1 0.619201
2
 1 0.527225
2
 0.463709 1
2
 0.107599 1
2
 0.670944 1
2
 0.10868 1
2
 0.319692 1
2
 0.0287153 1
2
 0.0535227 1
2
 0.268048 1
2
 0.0997895 1
2
 1 0.101621
2
 1 0.188081
2
 1 0.240251
2
 1 0.160862
2
 1 0.246791
2
 1 0.159044
2
 1 0.116071
2
 1 0.121103
2
 0.239723 1
2
 0.235862 1
2
 1 0.649359
2
 0.485449 1
2
 0.96373 1
2
 0.887366 1
2
 0.474977 1
2
 1 0.1851
2
 0.0187526 1
2
 0.0471018 1
2
 0.0405571 1
2
 0.115059 1
2
 1 0.709733
2
 0.666301 1
2
 1 0.977636
2
 0.778183 1
2
 0.597796 1
2
 0.0363674 1
2
 0.0445403 1
2
 0.0514445 1
2
 0.0793658 1
2
 0.168556 1
2
 0.0280017 1
2
 0.0202271 1
2
 0.193881 1
2
 0.15822 1
2
 0.158297 1
2
 0.195108 1
2
 0.277417 1
2
 0.123929 1
2
 1 0.251394
2
 1 0.218503
2
 1 0.217594
2
 1 0.147608
2
 1 0.39569
2
 1 0.229799
2
 1 0.188248
2
 1 0.411374
2
 1 0.185614
2
 1 0.304534
2
 0.126898 1
2
 0.134078 1
2
 0.444309 1
2
 0.212816 1
2
 0.619356 1
2
 0.158607 1
2
 0.251952 1
2
 1 0.802276
2
 1 0.284501
2
 1 0.192749
2
 1 0.175494
2
 1 0.196425
2
 1 0.299446
2
 1 0.316057
2
 1 0.164346
2
 1 0.655286
2
 0.391767 1
2
 1 0.738325
2
 0.192741 1
2
 0.014862 1
2
 0.110426 1
2
 0.0170402 1
2
 0.338175 1
2
 0.373337 1
2
 0.404402 1
2
 0.164632 1
2
 0.207145 1
2
 0.326556 1
2
 0.186436 1
2
 0.28435 1
2
 0.144366 1
2
 1 0.601722
2
 0.390661 1
2
 0.132937 1
2
 0.441161 1
2
 1 0.75003
2
 0.316702 1
2
 0.521327 1
2
 0.871419 1
2
 0.406735 1
2
 1 0.601232
2
 1 0.796856
2
 1 0.591063
2
 1 0.248906
2
 1 0.530233
2
 0.0404772 1
2
 1 0.220452
2
 1 0.210877
2
 1 0.121728
2
 1 0.197358
2
 1 0.126032
2
 1 0.0823115
2
 0.414345 1
2
 0.647655 1
2
 1 0.445723
2
 1 0.731148
2
 0.499033 1
2
 1 0.224819
2
 0.997465 1
2
 0.248852 1
2
 0.746416 1
2
 1 0.473618
2
 0.14387 1
2
 0.057821 1
2
 0.0736683 1
2
 0.0112055 1
2
 0.0117978 1
2
 0.0178181 1
2
 1 0.185176
2
 1 0.23555
2
 1 0.682039
2
 1 0.436081
2
 0.0049615 1
2
 0.00828291 1
2
 0.0196549 1
2
 0.250884 1
2
 1 0.203952
2
 1 0.0848782
2
 1 0.118751
2
 1 0.374286
2
 1 0.831663
2
 1 0.819431
2
 1 0.514927
2
 0.195111 1
2
 1 0.864382
2
 0.272814 1
2
 1 0.23467
2
 1 0.246492
2
 1 0.215542
2
 1 0.488367
2
 0.186623 1
2
 1 0.371968
2
 1 0.130236
2
 0.379123 1
2
 0.616237 1
2
 0.893377 1
2
 0.38108 1
2
 0.174473 1
2
 0.14185 1
2
 0.261256 1
2
 0.329269 1
2
 0.208644 1
2
 0.101339 1
2
 1 0.970883
2
 0.327523 1
2
 0.12702 1
2
 0.738201 1
2
 0.29049 1
2
 0.148554 1
2
 0.427242 1
2
 0.362425 1
2
 0.150359 1
2
 0.40456 1
2
 0.219787 1
2
 0.259254 1
2
 1 0.544075
2
 0.0273071 1
2
 0.0099226 1
2
 0.244577 1
2
 0.0881008 1
2
 1 0.461433
2
 0.996961 1
2
 1 0.471533
2
 1 0.075651
2
 1 0.139262
2
 1 0.0779014
2
 1 0.203912
2
 0.0218835 1
2
 0.0227537 1
2
 1 0.83795
2
 0.00670152 1
2
 1 0.109061
2
 1 0.176957
2
 1 0.230077
2
 1 0.226213
2
 1 0.239515
2
 1 0.808858
4
 1 0.294889 0.294889 0.990291
4
 1 0.291559 0.291559 0.989567
4
 1 0.29127 0.29127 0.994246
4
 1 0.290035 0.290035 0.993688
4
 1 0.295108 0.295108 0.986793
4
 1 0.2932 0.2932 0.9938
4
 1 0.297064 0.297064 0.986351
4
 1 0.299586 0.299586 0.984304
4
 1 0.293084 0.293084 0.996818
4
 1 0.299657 0.299657 0.988791
4
 1 0.296343 0.296343 0.992574
4
 1 0.301098 0.301098 0.984525
4
 1 0.289262 0.289262 0.986792
4
 1 0.285964 0.285964 0.991067
4
 1 0.284421 0.284421 0.991123
4
 1 0.286121 0.286121 0.986237
4
 1 0.291226 0.291226 0.9789
4
 1 0.288911 0.288911 0.981321
4
 1 0.291724 0.291724 0.982038
4
 1 0.286867 0.286867 0.992683
4
 1 0.28866 0.28866 0.992516
4
 1 0.292645 0.292645 0.983639
4
 1 0.282066 0.282066 0.997039
4
 1 0.285369 0.285369 0.996816
4
 0.998866 0.282265 0.282265 1
4
 0.999203 0.280236 0.280236 1
4
 1 0.278811 0.278811 0.997487
4
 1 0.282221 0.282221 0.99218
4
 0.999147 0.278709 0.278709 1
4
 1 0.288374 0.288374 0.997209
4
 0.996904 0.285694 0.285694 1
4
 0.999201 0.289256 0.289256 1
4
 0.999034 0.284077 0.284077 1
4
 0.997464 0.284642 0.284642 1
4
 0.990321 0.277292 0.277292 1
4
 0.986547 0.27318 0.27318 1
4
 0.988765 0.277844 0.277844 1
4
 0.98367 0.274779 0.274779 1
4
 0.982015 0.270973 0.270973 1
4
 0.990933 0.27594 0.27594 1
4
 0.993161 0.28065 0.28065 1
4
 0.99506 0.27808 0.27808 1
4
 0.982622 0.269652 0.269652 1
4
 0.983175 0.267765 0.267765 1
4
 0.988267 0.270752 0.270752 1
4
 0.991268 0.273956 0.273956 1
4
 0.986491 0.278107 0.278107 1
4
 0.993885 0.284715 0.284715 1
4
 0.989653 0.281322 0.281322 1
4
 0.943637 0.23794 0.23794 1
4
 0.958806 0.247319 0.247319 1
4
 0.945015 0.239632 0.239632 1
4
 0.951886 0.243648 0.243648 1
4
 0.929491 0.22975 0.22975 1
4
 0.922108 0.226859 0.226859 1
4
 0.926156 0.229044 0.229044 1
4
 0.932941 0.232992 0.232992 1
4
 0.937668 0.235372 0.235372 1
4
 1 0.335532 0.335532 0.98387
4
 1 0.335936 0.335936 0.986415
4
 1 0.329229 0.329229 0.99392
4
 1 0.331332 0.331332 0.988965
4
 1 0.332099 0.332099 0.993418
4
 1 0.338763 0.338763 0.981002
4
 1 0.341419 0.341419 0.974578
4
 1 0.339426 0.339426 0.974468
4
 1 0.336909 0.336909 0.977701
4
 1 0.33412 0.33412 0.983538
4
 1 0.33417 0.33417 0.981717
4
 1 0.34183 0.34183 0.977099
4
 1 0.340209 0.340209 0.984479
4
 1 0.343297 0.343297 0.977867
4
 1 0.335297 0.335297 0.990522
4
 1 0.345988 0.345988 0.971464
4
 1 0.347125 0.347125 0.965482
4
 1 0.344732 0.344732 0.966621
4
 1 0.348865 0.348865 0.965482
4
 1 0.3425 0.3425 0.970591
4
 1 0.344347 0.344347 0.978802
4
 1 0.339062 0.339062 0.989911
4
 1 0.336323 0.336323 0.991469
4
 1 0.350362 0.350362 0.966242
4
 0.996951 0.320673 0.320673 1
4
 0.994938 0.320653 0.320653 1
4
 0.998239 0.324661 0.324661 1
4
 1 0.327843 0.327843 0.993585
4
 1 0.323333 0.323333 0.998674
4
 1 0.328603 0.328603 0.998059
4
 0.990479 0.31519 0.31519 1
4
 0.993209 0.313441 0.313441 1
4
 0.99684 0.318246 0.318246 1
4
 0.987925 0.310068 0.310068 1
4
 0.987037 0.311383 0.311383 1
4
 0.991758 0.31911 0.31911 1
4
 0.985983 0.314882 0.314882 1
4
 0.985043 0.311363 0.311363 1
4
 0.992537 0.322804 0.322804 1
4
 0.989255 0.318818 0.318818 1
4
 0.998743 0.327657 0.327657 1
4
 0.957297 0.25707 0.25707 1
4
 0.953488 0.255447 0.255447 1
4
 0.961174 0.262736 0.262736 1
4
 0.959826 0.260133 0.260133 1
4
 0.951294 0.255689 0.255689 1
4
 0.954022 0.258786 0.258786 1
4
 0.960958 0.264443 0.264443 1
4
 0.954399 0.25364 0.25364 1
4
 0.963499 0.258387 0.258387 1
4
 0.958804 0.254429 0.254429 1
4
 0.960743 0.258292 0.258292 1
4
 0.952525 0.250797 0.250797 1
4
 0.946234 0.249586 0.249586 1
4
 0.956921 0.256662 0.256662 1
4
 0.948415 0.252277 0.252277 1
4
 0.948735 0.249214 0.249214 1
4
 0.944589 0.247249 0.247249 1
4
 0.944058 0.249823 0.249823 1
4
 0.938719 0.246446 0.246446 1
4
 0.937087 0.243731 0.243731 1
4
 0.940249 0.244843 0.244843 1
4
 0.973451 0.264502 0.264502 1
4
 0.969633 0.260337 0.260337 1
4
 0.964095 0.257556 0.257556 1
4
 0.966045 0.261467 0.261467 1
4
 0.970394 0.26379 0.26379 1
4
 0.989087 0.323726 0.323726 1
4
 0.983493 0.321487 0.321487 1
4
 0.984322 0.320515 0.320515 1
4
 0.992536 0.328231 0.328231 1
4
 0.986758 0.318527 0.318527 1
4
 0.985263 0.31931 0.31931 1
4
 0.993485 0.326996 0.326996 1
4
 0.996222 0.327358 0.327358 1
4
 0.97969 0.317101 0.317101 1
4
 0.97415 0.312815 0.312815 1
4
 0.973986 0.314469 0.314469 1
4
 0.982004 0.315367 0.315367 1
4
 0.982557 0.311079 0.311079 1
4
 0.979252 0.309666 0.309666 1
4
 0.980077 0.312354 0.312354 1
4
 0.974971 0.311869 0.311869 1
4
 0.978592 0.313121 0.313121 1
4
 1 0.318811 0.318811 0.984916
4
 1 0.315753 0.315753 0.990296
4
 1 0.311365 0.311365 0.991519
4
 1 0.313058 0.313058 0.994419
4
 1 0.314963 0.314963 0.984529
4
 1 0.316413 0.316413 0.984584
4
 1 0.326446 0.326446 0.978578
4
 1 0.319687 0.319687 0.986577
4
 1 0.322634 0.322634 0.983757
4
 1 0.323561 0.323561 0.977753
4
 1 0.326319 0.326319 0.975944
4
 1 0.320355 0.320355 0.980887
4
 0.991821 0.289832 0.289832 1
4
 0.988707 0.28761 0.28761 1
4
 0.990707 0.292464 0.292464 1
4
 0.996341 0.295978 0.295978 1
4
 0.995839 0.293271 0.293271 1
4
 0.987487 0.285159 0.285159 1
4
 0.99461 0.290772 0.290772 1
4
 0.993382 0.287813 0.287813 1
4
 0.989152 0.284383 0.284383 1
4
 1 0.278916 0.278916 0.988564
4
 1 0.276937 0.276937 0.994075
4
 1 0.274709 0.274709 0.995862
4
 1 0.278877 0.278877 0.984741
4
 1 0.279069 0.279069 0.992347
4
 1 0.282482 0.282482 0.987067
4
 1 0.282895 0.282895 0.982809
4
 1 0.281024 0.281024 0.983029
4
 1 0.27486 0.27486 0.999673
4
 1 0.280478 0.280478 0.99257
4
 0.995732 0.27364 0.27364 1
4
 0.998755 0.276878 0.276878 1
4
 0.993554 0.269172 0.269172 1
4
 1 0.284323 0.284323 0.98303
4
 1 0.286676 0.286676 0.982368
4
 1 0.285282 0.285282 0.974729
4
 1 0.282856 0.282856 0.979008
4
 1 0.287095 0.287095 0.978129
4
 1 0.287083 0.287083 0.975003
4
 1 0.283394 0.283394 0.974948
4
 1 0.28763 0.28763 0.97096
4
 0.954763 0.300132 0.300132 1
4
 0.955675 0.299503 0.299503 1
4
 0.950697 0.295076 0.295076 1
4
 0.959331 0.302494 0.302494 1
4
 0.963758 0.306998 0.306998 1
4
 0.925532 0.23006 0.23006 1
4
 0.923766 0.230643 0.230643 1
4
 0.935984 0.236582 0.236582 1
4
 0.934304 0.234648 0.234648 1
4
 0.932522 0.235244 0.235244 1
4
 0.927821 0.232865 0.232865 1
4
 1 0.343222 0.343222 0.962341
4
 1 0.337703 0.337703 0.968249
4
 1 0.341 0.341 0.966294
4
 1 0.340369 0.340369 0.959481
4
 1 0.346013 0.346013 0.957974
4
 1 0.34327 0.34327 0.957705
4
 1 0.33889 0.33889 0.963801
4
 1 0.347349 0.347349 0.961424
4
 1 0.351513 0.351513 0.960292
4
 1 0.353759 0.353759 0.955504
4
 1 0.350173 0.350173 0.957061
4
 1 0.342721 0.342721 0.966512
4
 1 0.34776 0.34776 0.95819
4
 1 0.355533 0.355533 0.955505
4
 0.979756 0.27123 0.27123 1
4
 0.982896 0.278978 0.278978 1
4
 0.978161 0.273917 0.273917 1
4
 0.977064 0.271835 0.271835 1
4
 0.97668 0.270501 0.270501 1
4
 0.984554 0.278219 0.278219 1
4
 0.974272 0.263262 0.263262 1
4
 0.975037 0.266754 0.266754 1
4
 0.978658 0.265602 0.265602 1
4
 0.986378 0.287749 0.287749 1
4
 0.98069 0.28171 0.28171 1
4
 0.979204 0.279126 0.279126 1
4
 0.979645 0.27784 0.27784 1
4
 0.986047 0.282203 0.282203 1
4
 0.993994 0.29612 0.29612 1
4
 0.992265 0.296296 0.296296 1
4
 0.982673 0.286465 0.286465 1
4
 0.984827 0.289767 0.289767 1
4
 0.990928 0.297438 0.297438 1
4
 0.985823 0.292202 0.292202 1
4
 0.928652 0.244997 0.244997 1
4
 0.927141 0.240911 0.240911 1
4
 0.930531 0.245012 0.245012 1
4
 0.932151 0.25065 0.25065 1
4
 0.935191 0.255788 0.255788 1
4
 0.939243 0.257273 0.257273 1
4
 0.936768 0.254243 0.254243 1
4
 0.932518 0.248135 0.248135 1
4
 0.935244 0.251676 0.251676 1
4
 0.93861 0.261012 0.261012 1
4
 0.940774 0.259897 0.259897 1
4
 0.942359 0.262232 0.262232 1
4
 0.944266 0.264885 0.264885 1
4
 0.946283 0.267368 0.267368 1
4
 0.946654 0.268687 0.268687 1
4
 0.943417 0.267342 0.267342 1
4
 0.939189 0.264105 0.264105 1
4
 0.997347 0.302977 0.302977 1
4
 1 0.307141 0.307141 0.997942
4
 0.99914 0.308545 0.308545 1
4
 0.996004 0.304145 0.304145 1
4
 0.997908 0.299856 0.299856 1
4
 1 0.303805 0.303805 0.997381
4
 0.999143 0.296938 0.296938 1
4
 1 0.302905 0.302905 0.994137
4
 1 0.300025 0.300025 0.997268
4
 1 0.304516 0.304516 0.999119
4
 1 0.332045 0.332045 0.975178
4
 1 0.327695 0.327695 0.981881
4
 1 0.326295 0.326295 0.981109
4
 1 0.330022 0.330022 0.973317
4
 1 0.333211 0.333211 0.970698
4
 1 0.33721 0.33721 0.972445
4
 1 0.334709 0.334709 0.975671
4
 1 0.329575 0.329575 0.98111
4
 1 0.331988 0.331988 0.979679
4
 1 0.335123 0.335123 0.969935
4
 1 0.337976 0.337976 0.973702
4
 1 0.332742 0.332742 0.980945
4
 0.964463 0.302741 0.302741 1
4
 0.964841 0.304742 0.304742 1
4
 0.969294 0.30928 0.30928 1
4
 0.969894 0.306236 0.306236 1
4
 0.973057 0.308888 0.308888 1
4
 0.961111 0.297593 0.297593 1
4
 0.95987 0.299877 0.299877 1
4
 0.964896 0.301347 0.301347 1
4
 0.956535 0.293796 0.293796 1
4
 0.954174 0.293175 0.293175 1
4
 0.954871 0.295445 0.295445 1
4
 0.966523 0.301028 0.301028 1
4
 0.96095 0.29422 0.29422 1
4
 0.958148 0.293485 0.293485 1
4
 0.966036 0.297779 0.297779 1
4
 0.96886 0.301023 0.301023 1
4
 0.964678 0.306354 0.306354 1
4
 0.955246 0.297398 0.297398 1
4
 0.972676 0.30482 0.30482 1
4
 0.973495 0.307465 0.307465 1
4
 1 0.326821 0.326821 0.95824
4
 1 0.325424 0.325424 0.957486
4
 1 0.322674 0.322674 0.959262
4
 1 0.319982 0.319982 0.964555
4
 1 0.325544 0.325544 0.962716
4
 1 0.322154 0.322154 0.965206
4
 1 0.329333 0.329333 0.953731
4
 1 0.333031 0.333031 0.953142
4
 1 0.329454 0.329454 0.95894
4
 1 0.325155 0.325155 0.954748
4
 1 0.320426 0.320426 0.957109
4
 1 0.319717 0.319717 0.961796
4
 1 0.315392 0.315392 0.962714
4
 1 0.310057 0.310057 0.968515
4
 1 0.313198 0.313198 0.963417
4
 1 0.314694 0.314694 0.967429
4
 1 0.308866 0.308866 0.973477
4
 1 0.311137 0.311137 0.972275
4
 1 0.308265 0.308265 0.965962
4
 1 0.311387 0.311387 0.960877
4
 1 0.304681 0.304681 0.968622
4
 1 0.307119 0.307119 0.963361
4
 1 0.316241 0.316241 0.958399
4
 1 0.317752 0.317752 0.96239
4
 1 0.310892 0.310892 0.964174
4
 1 0.304197 0.304197 0.971946
4
 1 0.305052 0.305052 0.974023
4
 1 0.306592 0.306592 0.974242
4
 1 0.319202 0.319202 0.967756
4
 1 0.315661 0.315661 0.971239
4
 1 0.313465 0.313465 0.971948
4
 1 0.313918 0.313918 0.996096
4
 1 0.317132 0.317132 0.994476
4
 1 0.319539 0.319539 0.989129
4
 0.966209 0.255791 0.255791 1
4
 0.964908 0.256349 0.256349 1
4
 0.968545 0.255787 0.255787 1
4
 0.974819 0.26142 0.26142 1
4
 0.947033 0.243902 0.243902 1
4
 0.956815 0.249674 0.249674 1
4
 0.955526 0.250219 0.250219 1
4
 0.952206 0.245964 0.245964 1
4
 0.949269 0.246647 0.246647 1
4
 0.940726 0.238999 0.238999 1
4
 0.938932 0.239605 0.239605 1
4
 0.944643 0.24368 0.24368 1
4
 0.960691 0.253058 0.253058 1
4
 0.964313 0.252503 0.252503 1
4
 0.957353 0.248755 0.248755 1
4
 0.953114 0.24999 0.24999 1
4
 0.959667 0.248751 0.248751 1
4
 0.972906 0.25806 0.25806 1
4
 0.972142 0.255959 0.255959 1
4
 0.945865 0.241018 0.241018 1
4
 1 0.338871 0.338871 0.949564
4
 1 0.335841 0.335841 0.953571
4
 1 0.33173 0.33173 0.957595
4
 1 0.339385 0.339385 0.951325
4
 1 0.340841 0.340841 0.952074
4
 1 0.344987 0.344987 0.946584
4
 1 0.337794 0.337794 0.956092
4
 1 0.332233 0.332233 0.959371
4
 1 0.333648 0.333648 0.959911
4
 1 0.342134 0.342134 0.955073
4
 1 0.343369 0.343369 0.951326
4
 1 0.337768 0.337768 0.961152
4
 1 0.33508 0.33508 0.960666
4
 0.979148 0.283686 0.283686 1
4
 0.975527 0.27788 0.27788 1
4
 0.971264 0.275229 0.275229 1
4
 0.975855 0.281928 0.281928 1
4
 0.977994 0.285178 0.285178 1
4
 0.982286 0.289368 0.289368 1
4
 0.974488 0.274062 0.274062 1
4
 0.970011 0.270944 0.270944 1
4
 0.969793 0.272704 0.272704 1
4
 0.970447 0.269696 0.269696 1
4
 0.973832 0.270726 0.270726 1
4
 0.964635 0.263985 0.263985 1
4
 0.969358 0.267645 0.267645 1
4
 0.965772 0.268359 0.268359 1
4
 1 0.309555 0.309555 0.997326
4
 0.999534 0.305959 0.305959 1
4
 1 0.311439 0.311439 0.987407
4
 1 0.306969 0.306969 0.991184
4
 1 0.30874 0.30874 0.990628
4
 0.996619 0.306725 0.306725 1
4
 1 0.314425 0.314425 0.998616
4
 0.996841 0.311422 0.311422 1
4
 0.995276 0.307908 0.307908 1
4
 0.992152 0.303517 0.303517 1
4
 0.988372 0.297029 0.297029 1
4
 0.990204 0.300116 0.300116 1
4
 0.998465 0.315124 0.315124 1
4
 1 0.319279 0.319279 0.997889
4
 1 0.321429 0.321429 0.992412
4
 1 0.320055 0.320055 0.991632
4
 0.950491 0.265603 0.265603 1
4
 0.946443 0.263754 0.263754 1
4
 0.948465 0.262699 0.262699 1
4
 0.94236 0.258327 0.258327 1
4
 0.952093 0.26799 0.26799 1
4
 0.954127 0.266918 0.266918 1
4
 0.959068 0.273063 0.273063 1
4
 0.961981 0.274002 0.274002 1
4
 0.959662 0.270827 0.270827 1
4
 0.950063 0.268618 0.268618 1
4
 0.9552 0.264515 0.264515 1
4
 0.957616 0.267865 0.267865 1
4
 0.949105 0.260668 0.260668 1
4
 0.945966 0.259605 0.259605 1
4
 0.957024 0.273703 0.273703 1
4
 0.96252 0.278046 0.278046 1
4
 0.964902 0.277245 0.277245 1
4
 0.966854 0.280517 0.280517 1
4
 0.957561 0.275438 0.275438 1
4
 0.952466 0.272473 0.272473 1
4
 0.957937 0.276796 0.276796 1
4
 0.960306 0.279705 0.279705 1
4
 0.965334 0.282485 0.282485 1
4
 0.967397 0.282294 0.282294 1
4
 0.955197 0.276695 0.276695 1
4
 0.949582 0.272447 0.272447 1
4
 0.963655 0.284544 0.284544 1
4
 0.9687 0.287372 0.287372 1
4
 0.965713 0.28769 0.28769 1
4
 0.977003 0.29533 0.29533 1
4
 0.972897 0.29292 0.29292 1
4
 0.973007 0.290759 0.290759 1
4
 0.962896 0.288411 0.288411 1
4
 0.95955 0.287792 0.287792 1
4
 0.961653 0.291109 0.291109 1
4
 0.968536 0.294238 0.294238 1
4
 0.966742 0.29463 0.29463 1
4
 0.962573 0.282381 0.282381 1
4
 0.959605 0.282693 0.282693 1
4
 0.954285 0.278667 0.278667 1
4
 0.951931 0.27531 0.27531 1
4
 0.971915 0.288549 0.288549 1
4
 0.969681 0.284995 0.284995 1
4
 0.958312 0.285206 0.285206 1
4
 0.956323 0.281748 0.281748 1
4
 0.967286 0.291595 0.291595 1
4
 0.968808 0.291016 0.291016 1
4
 0.944687 0.277188 0.277188 1
4
 0.949953 0.281663 0.281663 1
4
 0.952035 0.28491 0.28491 1
4
 0.946014 0.280896 0.280896 1
4
 0.949687 0.280073 0.280073 1
4
 0.947716 0.276677 0.276677 1
4
 0.94278 0.273042 0.273042 1
4
 0.952999 0.281144 0.281144 1
4
 0.957074 0.287875 0.287875 1
4
 0.948675 0.274389 0.274389 1
4
 0.946068 0.274086 0.274086 1
4
 0.953105 0.287092 0.287092 1
4
 0.956375 0.290466 0.290466 1
4
 0.964248 0.294716 0.294716 1
4
 0.942093 0.267802 0.267802 1
4
 0.943734 0.270784 0.270784 1
4
 0.939505 0.267506 0.267506 1
4
 1 0.324977 0.324977 0.967811
4
 1 0.32475 0.32475 0.965911
4
 1 0.326249 0.326249 0.968845
4
 1 0.329564 0.329564 0.963961
4
 1 0.31841 0.31841 0.976326
4
 1 0.321594 0.321594 0.970314
4
 1 0.323078 0.323078 0.973261
4
 1 0.319876 0.319876 0.976381
4
 1 0.318187 0.318187 0.974409
4
 1 0.312307 0.312307 0.983644
4
 1 0.314658 0.314658 0.977916
4
 1 0.316487 0.316487 0.980501
4
 1 0.317804 0.317804 0.971895
4
 1 0.29668 0.29668 0.969056
4
 1 0.29179 0.29179 0.975059
4
 1 0.294375 0.294375 0.969872
4
 1 0.294632 0.294632 0.975772
4
 1 0.29631 0.29631 0.97189
4
 1 0.296929 0.296929 0.966285
4
 1 0.301217 0.301217 0.964605
4
 1 0.29888 0.29888 0.968295
4
 1 0.289458 0.289458 0.974347
4
 1 0.292035 0.292035 0.972271
4
 1 0.292022 0.292022 0.969164
4
 0.950326 0.286375 0.286375 1
4
 0.94798 0.28577 0.28577 1
4
 0.951233 0.289129 0.289129 1
4
 0.949578 0.290751 0.290751 1
4
 1 0.325398 0.325398 0.993696
4
 1 0.327589 0.327589 0.988243
4
 1 0.329987 0.329987 0.986801
4
 0.982009 0.296996 0.296996 1
4
 0.985268 0.29871 0.29871 1
4
 0.977992 0.292399 0.292399 1
4
 0.977224 0.288091 0.288091 1
4
 0.975744 0.288798 0.288798 1
4
 0.981514 0.292324 0.292324 1
4
 0.983334 0.295362 0.295362 1
4
 0.989091 0.306397 0.306397 1
4
 0.997568 0.31646 0.31646 1
4
 0.992374 0.308165 0.308165 1
4
 0.988646 0.308328 0.308328 1
4
 0.987538 0.302939 0.302939 1
4
 0.983829 0.303099 0.303099 1
4
 0.980135 0.298744 0.298744 1
4
 0.980246 0.296539 0.296539 1
4
 1 0.323082 0.323082 0.993305
4
 0.98887 0.301273 0.301273 1
4
 0.967999 0.264994 0.264994 1
4
 0.967619 0.263693 0.263693 1
4
 0.972357 0.267349 0.267349 1
4
 1 0.327639 0.327639 0.986413
4
 1 0.323868 0.323868 0.987077
4
 1 0.297886 0.297886 0.97676
4
 1 0.298968 0.298968 0.978737
4
 1 0.301506 0.301506 0.976706
4
 1 0.303067 0.303067 0.969329
4
 1 0.299582 0.299582 0.972873
4
 1 0.296208 0.296208 0.980882
4
 1 0.296817 0.296817 0.975006
4
 1 0.299808 0.299808 0.980828
4
 1 0.30388 0.30388 0.979013
4
 0.997406 0.291229 0.291229 1
4
 1 0.295233 0.295233 0.998331
4
 1 0.297432 0.297432 0.997771
4
 0.991933 0.284829 0.284829 1
4
 1 0.292589 0.292589 0.999565
4
 0.978439 0.261596 0.261596 1
4
 0.98428 0.266685 0.266685 1
4
 0.983121 0.262777 0.262777 1
4
 0.983507 0.264514 0.264514 1
4
 0.98899 0.267889 0.267889 1
4
 0.992382 0.272851 0.272851 1
4
 0.978155 0.301225 0.301225 1
4
 0.977276 0.302503 0.302503 1
4
 0.974482 0.296896 0.296896 1
4
 0.971149 0.297883 0.297883 1
4
 0.982503 0.306304 0.306304 1
4
 0.979694 0.300627 0.300627 1
4
 0.975466 0.302906 0.302906 1
4
 0.978318 0.306206 0.306206 1
4
 0.948947 0.255575 0.255575 1
4
 0.944004 0.252217 0.252217 1
4
 0.940882 0.249103 0.249103 1
4
 0.958586 0.264324 0.264324 1
4
 0.954986 0.261832 0.261832 1
4
 0.946711 0.255272 0.255272 1
4
 0.948893 0.258024 0.258024 1
4
 1 0.360519 0.360519 0.94563
4
 1 0.360899 0.360899 0.941603
4
 1 0.358181 0.358181 0.946693
4
 1 0.354177 0.354177 0.95229
4
 1 0.354551 0.354551 0.948235
4
 1 0.356321 0.356321 0.942607
4
 1 0.354871 0.354871 0.945948
4
 1 0.347808 0.347808 0.953574
4
 1 0.350905 0.350905 0.951541
4
 0.973992 0.288354 0.288354 1
4
 0.970119 0.276676 0.276676 1
4
 0.961929 0.267556 0.267556 1
4
 0.964362 0.270944 0.270944 1
4
 0.971262 0.280791 0.280791 1
4
 0.973227 0.284106 0.284106 1
4
 0.96892 0.277538 0.277538 1
4
 0.978982 0.287574 0.287574 1
4
 0.960741 0.268389 0.268389 1
4
 0.952202 0.261178 0.261178 1
4
 0.96979 0.281481 0.281481 1
4
 0.965499 0.274974 0.274974 1
4
 0.972185 0.30153 0.30153 1
4
 0.975849 0.30746 0.30746 1
4
 0.931002 0.243997 0.243997 1
4
 0.931577 0.242807 0.242807 1
4
 0.92631 0.237537 0.237537 1
4
 0.929958 0.240132 0.240132 1
4
 0.94395 0.254634 0.254634 1
4
 0.938086 0.250027 0.250027 1
4
 0.938666 0.248808 0.248808 1
4
 0.940247 0.252723 0.252723 1
4
 0.942996 0.25633 0.25633 1
4
 0.937137 0.251692 0.251692 1
4
 0.934983 0.24694 0.24694 1
4
 0.933935 0.243029 0.243029 1
4
 1 0.334718 0.334718 0.998733
4
 1 0.334167 0.334167 0.995988
4
 0.999696 0.331913 0.331913 1
4
 0.930743 0.23584 0.23584 1
4
 0.941148 0.242301 0.242301 1
4
 0.937035 0.24039 0.24039 1
4
 0.925531 0.234318 0.234318 1
4
 0.929175 0.236879 0.236879 1
4
 0.932311 0.237959 0.237959 1
4
 0.942735 0.244478 0.244478 1
4
 0.928654 0.237754 0.237754 1
4
 0.935457 0.241448 0.241448 1
4
 1 0.304273 0.304273 0.987849
4
 1 0.299152 0.299152 0.991516
4
 1 0.30138 0.30138 0.99096
4
 1 0.303952 0.303952 0.983476
4
 1 0.306187 0.306187 0.982262
4
 1 0.307825 0.307825 0.987406
4
 1 0.303149 0.303149 0.991072
4
 1 0.310141 0.310141 0.981657
4
 1 0.307984 0.307984 0.982373
4
 1 0.311931 0.311931 0.981106
4
 1 0.298047 0.298047 0.99475
4
 1 0.307659 0.307659 0.978024
4
 1 0.312092 0.312092 0.976105
4
 1 0.349544 0.349544 0.947914
4
 1 0.350806 0.350806 0.944196
4
 1 0.352656 0.352656 0.945894
4
 1 0.346296 0.346296 0.949565
4
 1 0.348122 0.348122 0.951274
4
 1 0.327106 0.327106 0.972497
4
 1 0.321127 0.321127 0.977423
4
 1 0.327638 0.327638 0.969389
4
 1 0.333082 0.333082 0.968085
4
 1 0.33043 0.33043 0.967595
4
 1 0.333623 0.333623 0.964991
4
 1 0.30434 0.30434 0.963902
4
 1 0.300841 0.300841 0.967426
4
 1 0.30198 0.30198 0.967589
4
 0.985102 0.294832 0.294832 1
1
 1

